c User generated cnf file
p cnf 12 26
-3 1 12 0 
7 -9 10 0 
10 -7 1 0 
-12 2 3 0 
10 -12 12 0 
3 -10 1 0 
4 2 -4 0 
3 -1 8 0 
12 8 -9 0 
8 -5 4 0 
2 4 -8 0 
-3 2 11 0 
-11 8 8 0 
10 10 -2 0 
2 -9 10 0 
9 5 -9 0 
11 6 -7 0 
2 3 -2 0 
5 -11 7 0 
-1 4 7 0 
-8 8 1 0 
-8 1 12 0 
4 -8 7 0 
-5 3 3 0 
2 1 -1 0 
-4 3 10 0 
